20
7732 4723
5900 3561
4483 3369
6101 1110
5199 2182
1633 2809
4307 2322
 675 1006
7555 4819
7541 3981
3177  756
7352 4506
7545 2801
3245 3305
6426 3173
4608 1198
  23 2216
7248 3779
7762 4595
7392 2244